p tw 144 344
0 1
0 29
0 60
0 66
0 119
0 123
1 32
2 3
2 29
2 30
2 31
2 32
3 123
4 5
4 6
4 94
4 95
5 6
5 90
5 117
6 91
6 93
7 8
7 14
7 25
7 136
7 139
7 143
8 28
9 10
9 11
9 20
9 22
9 53
10 11
10 23
10 89
11 44
11 99
12 13
12 37
13 28
13 76
13 138
13 139
14 15
14 25
14 136
14 139
14 143
15 24
15 118
16 17
16 71
16 73
16 82
16 97
16 98
17 74
17 133
18 19
18 100
19 46
19 111
19 130
19 141
20 21
20 22
20 53
21 52
21 105
21 107
21 140
22 23
22 24
22 25
22 53
23 24
23 25
23 89
24 25
24 118
25 136
25 139
25 143
26 27
26 36
26 120
27 35
27 121
28 76
28 138
28 139
29 30
29 31
29 32
29 60
29 66
29 119
29 123
30 31
30 32
30 33
30 34
30 35
30 36
31 32
31 96
33 34
33 35
33 36
33 96
34 35
34 36
34 49
35 36
35 121
36 120
37 75
37 76
37 77
37 78
38 39
38 82
39 58
39 70
39 71
39 72
40 41
40 42
40 109
41 42
41 110
42 67
42 68
42 69
43 44
43 45
43 54
43 55
44 45
44 99
45 81
46 47
46 111
46 130
46 141
47 108
48 49
48 50
48 63
48 88
48 119
49 50
50 56
50 57
51 52
51 53
51 106
51 142
52 53
52 105
52 107
52 140
54 55
54 81
54 99
55 115
55 128
56 57
56 93
56 117
57 86
57 87
57 88
58 59
58 70
58 71
58 72
59 97
60 61
60 66
60 119
60 123
61 62
61 63
62 63
62 66
63 88
63 119
64 65
64 77
64 127
65 78
65 92
66 119
66 123
67 68
67 69
67 101
67 126
67 128
68 69
68 115
68 116
69 79
69 108
69 109
69 110
69 111
70 71
70 72
70 104
70 120
70 121
70 122
71 72
71 73
71 82
71 97
71 98
72 129
73 74
73 82
73 97
73 98
74 133
75 76
75 77
75 78
75 89
76 77
76 78
76 138
76 139
77 78
77 127
78 92
79 80
79 108
79 109
79 110
79 111
80 141
81 99
82 97
82 98
83 84
83 85
83 125
83 126
84 85
84 113
84 135
85 124
86 87
86 88
86 105
87 88
87 106
87 107
88 119
90 91
90 117
91 93
92 100
92 127
92 130
92 131
93 117
94 95
94 103
94 132
95 112
95 113
95 114
97 98
98 112
98 132
98 133
100 127
100 130
100 131
101 102
101 126
101 128
102 124
102 125
102 134
102 135
103 104
103 132
104 120
104 121
104 122
105 107
105 140
106 107
106 142
107 140
108 109
108 110
108 111
109 110
109 111
110 111
111 130
111 141
112 113
112 114
112 132
112 133
113 114
113 135
114 134
115 116
115 128
116 131
118 143
119 123
120 121
120 122
121 122
122 129
124 125
124 134
124 135
125 126
125 134
125 135
126 128
127 130
127 131
130 131
130 141
132 133
134 135
136 137
136 139
136 143
137 138
138 139
139 143
140 142
